10
20
755
748
619
612
608
536
517
473
192
95
58	392
242	508
485	665
463	624
169	221
431	522
453	501
744	696
583	524
762	603
174	298
533	579
842	851
68	65
858	813
524	448
934	758
513	363
827	554
658	434
